1643713200
1643736600
1643799600
1643823000
1643886000
1643909400
1643972400
1643995800
1644231600
1644251400
1644318000
1644341400
1644404400
1644427800
1644490800
1644514200
1644577200
1644600600
1644836400
1644859800
1644922800
1644946200
1645009200
1645032600
1645095600
1645119000
1645182000
1645205400
1645441200
1645464600
1645527600
1645551000
1645614000
1645637400
1645700400
1645723800
1645786800
1645810200
1646046000
1646069400
